# Objective value = 1.9714934227806352e+03
x[0] 1
x[1] 1
x[2] 1
x[3] 1
x[4] 1
x[5] 0
x[6] 1
x[7] 0
x[8] 1
x[9] 0
x[10] 0
x[11] 0
x[12] 1
x[13] 1
x[14] 0
x[15] 1
x[16] 1
x[17] 1
x[18] 1
x[19] 0
x[20] 0
x[21] 1
x[22] 1
x[23] 0
x[24] 1
x[25] 1
x[26] 0
x[27] 0
x[28] 1
x[29] 1
x[30] 1
x[31] 1
x[32] 0
x[33] 1
x[34] 1
x[35] 0
x[36] 1
x[37] 1
x[38] 0
x[39] 1
x[40] 1
x[41] 1
x[42] 0
x[43] 1
x[44] 1
x[45] 0
x[46] 0
x[47] 0
x[48] 0
x[49] 0
x[50] 1
x[51] 1
x[52] 0
x[53] 0
x[54] 0
x[55] 0
x[56] 0
x[57] 1
x[58] 0
x[59] 0
x[60] 1
x[61] 1
x[62] 1
x[63] 1
x[64] 1
x[65] 0
x[66] 1
x[67] 1
x[68] 0
x[69] 1
x[70] 0
x[71] 1
x[72] 1
x[73] 1
x[74] 0
x[75] 1
x[76] 0
x[77] 1
x[78] 1
x[79] 1
x[80] 0
x[81] 0
x[82] 1
x[83] 1
x[84] 0
x[85] 0
x[86] 0
x[87] 1
x[88] 0
x[89] 0
x[90] 1
x[91] 1
x[92] 0
x[93] 0
x[94] 0
x[95] 1
x[96] 0
x[97] 0
x[98] 1
x[99] 1
x[100] 0
x[101] 0
x[102] 1
x[103] 1
x[104] 1
x[105] 1
x[106] 0
x[107] 1
x[108] 0
x[109] 0
x[110] 0
x[111] 1
x[112] 0
x[113] 1
x[114] 1
x[115] 0
x[116] 0
x[117] 1
x[118] 1
x[119] 1
x[120] 1
x[121] 1
x[122] 0
x[123] 1
x[124] 0
x[125] 0
x[126] 1
x[127] 1
x[128] 1
x[129] 0
x[130] 0
x[131] 1
x[132] 0
x[133] 1
x[134] 0
x[135] 1
x[136] 1
x[137] 1
x[138] 0
x[139] 1
x[140] 0
x[141] 1
x[142] 0
x[143] 1
x[144] 1
x[145] 1
x[146] 1
x[147] 0
x[148] 0
x[149] 0
x[150] 0
x[151] 0
x[152] 0
x[153] 1
x[154] 0
x[155] 0
x[156] 0
x[157] 1
x[158] 1
x[159] 1
x[160] 0
x[161] 1
x[162] 1
x[163] 1
x[164] 1
x[165] 0
x[166] 0
x[167] 0
x[168] 0
x[169] 0
x[170] 0
x[171] 1
x[172] 0
x[173] 1
x[174] 0
x[175] 0
x[176] 0
x[177] 0
x[178] 0
x[179] 0
x[180] 0
x[181] 1
x[182] 1
x[183] 1
x[184] 0
x[185] 1
x[186] 1
x[187] 1
x[188] 1
x[189] 1
x[190] 0
x[191] 0
x[192] 0
x[193] 0
x[194] 0
x[195] 0
x[196] 1
x[197] 0
x[198] 1
x[199] 1
x[200] 0
x[201] 1
x[202] 0
x[203] 1
x[204] 1
x[205] 0
x[206] 1
x[207] 1
x[208] 0
x[209] 1
x[210] 1
x[211] 1
x[212] 0
x[213] 1
x[214] 0
x[215] 1
x[216] 0
x[217] 0
x[218] 0
x[219] 0
x[220] 0
x[221] 1
x[222] 1
x[223] 0
x[224] 1
x[225] 0
x[226] 1
x[227] 0
x[228] 0
x[229] 1
x[230] 0
x[231] 1
x[232] 1
x[233] 0
x[234] 1
x[235] 0
x[236] 0
x[237] 0
x[238] 0
x[239] 1
x[240] 1
x[241] 0
x[242] 1
x[243] 0
x[244] 1
x[245] 1
x[246] 1
x[247] 1
x[248] 1
x[249] 0
x[250] 1
x[251] 1
x[252] 0
x[253] 0
x[254] 1
x[255] 1
x[256] 1
x[257] 0
x[258] 0
x[259] 1
x[260] 1
x[261] 1
x[262] 0
x[263] 1
x[264] 1
x[265] 0
x[266] 0
x[267] 0
x[268] 0
x[269] 1
x[270] 0
x[271] 1
x[272] 0
x[273] 1
x[274] 1
x[275] 1
x[276] 1
x[277] 0
x[278] 1
x[279] 1
x[280] 1
x[281] 0
x[282] 1
x[283] 1
x[284] 0
x[285] 1
x[286] 1
x[287] 1
x[288] 1
x[289] 1
x[290] 1
x[291] 1
x[292] 1
x[293] 1
x[294] 1
x[295] 0
x[296] 1
x[297] 0
x[298] 1
x[299] 1
x[300] 1
x[301] 1
x[302] 0
x[303] 1
x[304] 0
x[305] 1
x[306] 1
x[307] 1
x[308] 1
x[309] 1
x[310] 1
x[311] 0
x[312] 1
x[313] 0
x[314] 0
x[315] 0
x[316] 1
x[317] 1
x[318] 0
x[319] 0
x[320] 1
x[321] 1
x[322] 0
x[323] 1
x[324] 1
x[325] 0
x[326] 1
x[327] 1
x[328] 1
x[329] 1
x[330] 0
x[331] 0
x[332] 0
x[333] 0
x[334] 1
x[335] 0
x[336] 1
x[337] 1
x[338] 1
x[339] 0
x[340] 1
x[341] 1
x[342] 1
x[343] 1
x[344] 0
x[345] 1
x[346] 1
x[347] 0
x[348] 0
x[349] 1
x[350] 0
x[351] 1
x[352] 1
x[353] 1
x[354] 0
x[355] 0
x[356] 1
x[357] 0
x[358] 1
x[359] 1
x[360] 1
x[361] 0
x[362] 1
x[363] 1
x[364] 0
x[365] 1
x[366] 1
x[367] 1
x[368] 1
x[369] 1
x[370] 1
x[371] 1
x[372] 1
x[373] 1
x[374] 0
x[375] 1
x[376] 1
x[377] 0
x[378] 1
x[379] 0
x[380] 1
x[381] 1
x[382] 1
x[383] 0
x[384] 1
x[385] 0
x[386] 1
x[387] 1
x[388] 0
x[389] 0
x[390] 0
x[391] 0
x[392] 1
x[393] 1
x[394] 0
x[395] 1
x[396] 1
x[397] 1
x[398] 0
x[399] 1
x[400] 1
x[401] 1
x[402] 0
x[403] 0
x[404] 0
x[405] 1
x[406] 1
x[407] 0
x[408] 1
x[409] 1
x[410] 0
x[411] 1
x[412] 1
x[413] 1
x[414] 1
x[415] 0
x[416] 1
x[417] 1
x[418] 1
x[419] 1
x[420] 0
x[421] 0
x[422] 1
x[423] 0
x[424] 0
x[425] 0
x[426] 0
x[427] 0
x[428] 1
x[429] 0
x[430] 0
x[431] 1
x[432] 1
x[433] 0
x[434] 0
x[435] 1
x[436] 0
x[437] 1
x[438] 1
x[439] 1
x[440] 1
x[441] 0
x[442] 1
x[443] 1
x[444] 0
x[445] 1
x[446] 1
x[447] 1
x[448] 1
x[449] 1
x[450] 0
x[451] 0
x[452] 1
x[453] 0
x[454] 0
x[455] 1
x[456] 0
x[457] 1
x[458] 0
x[459] 1
x[460] 0
x[461] 0
x[462] 1
x[463] 1
x[464] 1
x[465] 0
x[466] 1
x[467] 1
x[468] 0
x[469] 1
x[470] 1
x[471] 0
x[472] 1
x[473] 1
x[474] 0
x[475] 0
x[476] 0
x[477] 1
x[478] 1
x[479] 0
x[480] 0
x[481] 0
x[482] 1
x[483] 1
x[484] 0
x[485] 1
x[486] 0
x[487] 1
x[488] 0
x[489] 1
x[490] 1
x[491] 0
x[492] 1
x[493] 1
x[494] 1
x[495] 0
x[496] 0
x[497] 0
x[498] 1
x[499] 1
x[500] 0
x[501] 1
x[502] 1
x[503] 0
x[504] 1
x[505] 1
x[506] 1
x[507] 0
x[508] 1
x[509] 0
x[510] 1
x[511] 1
x[512] 0
x[513] 1
x[514] 0
x[515] 0
x[516] 1
x[517] 1
x[518] 0
x[519] 0
x[520] 0
x[521] 1
x[522] 0
x[523] 0
x[524] 1
x[525] 1
x[526] 0
x[527] 1
x[528] 0
x[529] 0
x[530] 1
x[531] 0
x[532] 0
x[533] 1
x[534] 0
x[535] 1
x[536] 1
x[537] 1
x[538] 0
x[539] 1
x[540] 1
x[541] 1
x[542] 0
x[543] 0
x[544] 0
x[545] 1
x[546] 1
x[547] 1
x[548] 0
x[549] 1
x[550] 1
x[551] 1
x[552] 0
x[553] 1
x[554] 1
x[555] 1
x[556] 1
x[557] 0
x[558] 1
x[559] 0
x[560] 0
x[561] 0
x[562] 0
x[563] 1
x[564] 0
x[565] 1
x[566] 1
x[567] 0
x[568] 0
x[569] 1
x[570] 1
x[571] 1
x[572] 1
x[573] 1
x[574] 0
x[575] 1
x[576] 1
x[577] 0
x[578] 1
x[579] 1
x[580] 1
x[581] 0
x[582] 1
x[583] 0
x[584] 0
x[585] 1
x[586] 0
x[587] 0
x[588] 0
x[589] 1
x[590] 1
x[591] 1
x[592] 1
x[593] 1
x[594] 1
x[595] 1
x[596] 0
x[597] 1
x[598] 1
x[599] 1
x[600] 1
x[601] 0
x[602] 0
x[603] 0
x[604] 1
x[605] 1
x[606] 0
x[607] 0
x[608] 1
x[609] 0
x[610] 1
x[611] 1
x[612] 1
x[613] 0
x[614] 0
x[615] 0
x[616] 1
x[617] 0
x[618] 1
x[619] 1
x[620] 1
x[621] 1
x[622] 0
x[623] 0
x[624] 1
x[625] 1
x[626] 1
x[627] 0
x[628] 1
x[629] 1
x[630] 0
x[631] 0
x[632] 1
x[633] 0
x[634] 1
x[635] 1
x[636] 0
x[637] 0
x[638] 1
x[639] 1
x[640] 1
x[641] 1
x[642] 1
x[643] 1
x[644] 1
x[645] 0
x[646] 0
x[647] 0
x[648] 0
x[649] 0
x[650] 0
x[651] 0
x[652] 1
x[653] 0
x[654] 1
x[655] 1
x[656] 0
x[657] 1
x[658] 0
x[659] 1
x[660] 1
x[661] 0
x[662] 1
x[663] 1
x[664] 0
x[665] 0
x[666] 0
x[667] 1
x[668] 1
x[669] 1
x[670] 0
x[671] 1
x[672] 1
x[673] 1
x[674] 0
x[675] 0
x[676] 1
x[677] 1
x[678] 0
x[679] 1
x[680] 0
x[681] 1
x[682] 0
x[683] 1
x[684] 1
x[685] 0
x[686] 0
x[687] 1
x[688] 1
x[689] 0
x[690] 1
x[691] 0
x[692] 1
x[693] 0
x[694] 1
x[695] 1
x[696] 0
x[697] 0
x[698] 1
x[699] 1
x[700] 0
x[701] 0
x[702] 0
x[703] 0
x[704] 0
x[705] 0
x[706] 0
x[707] 1
x[708] 0
x[709] 1
x[710] 1
x[711] 0
x[712] 1
x[713] 1
x[714] 1
x[715] 1
x[716] 0
x[717] 1
x[718] 1
x[719] 0
x[720] 1
x[721] 1
x[722] 1
x[723] 0
x[724] 0
x[725] 1
x[726] 0
x[727] 0
x[728] 1
x[729] 0
x[730] 0
x[731] 1
x[732] 1
x[733] 1
x[734] 1
x[735] 0
x[736] 1
x[737] 1
x[738] 0
x[739] 1
x[740] 0
x[741] 1
x[742] 0
x[743] 0
x[744] 1
x[745] 0
x[746] 1
x[747] 1
x[748] 0
x[749] 1
x[750] 0
x[751] 0
x[752] 0
x[753] 0
x[754] 1
x[755] 1
x[756] 1
x[757] 1
x[758] 1
x[759] 0
x[760] 0
x[761] 1
x[762] 1
x[763] 0
x[764] 0
x[765] 0
x[766] 1
x[767] 0
x[768] 1
x[769] 1
x[770] 1
x[771] 0
x[772] 0
x[773] 0
x[774] 1
x[775] 0
x[776] 0
x[777] 0
x[778] 0
x[779] 0
x[780] 1
x[781] 1
x[782] 0
x[783] 0
x[784] 0
x[785] 0
x[786] 1
x[787] 1
x[788] 1
x[789] 1
x[790] 0
x[791] 0
x[792] 0
x[793] 0
x[794] 0
x[795] 0
x[796] 1
x[797] 1
x[798] 1
x[799] 0
x[800] 1
x[801] 0
x[802] 1
x[803] 1
x[804] 1
x[805] 0
x[806] 1
x[807] 1
x[808] 0
x[809] 0
x[810] 1
x[811] 0
x[812] 1
x[813] 0
x[814] 0
x[815] 1
x[816] 1
x[817] 1
x[818] 1
x[819] 0
x[820] 0
x[821] 0
x[822] 1
x[823] 1
x[824] 1
x[825] 1
x[826] 0
x[827] 1
x[828] 0
x[829] 0
x[830] 1
x[831] 1
x[832] 0
x[833] 0
x[834] 1
x[835] 0
x[836] 1
x[837] 1
x[838] 0
x[839] 0
x[840] 1
x[841] 0
x[842] 0
x[843] 0
x[844] 0
x[845] 1
x[846] 1
x[847] 1
x[848] 0
x[849] 0
x[850] 1
x[851] 1
x[852] 0
x[853] 0
x[854] 1
x[855] 1
x[856] 0
x[857] 1
x[858] 0
x[859] 0
x[860] 0
x[861] 0
x[862] 1
x[863] 0
x[864] 1
x[865] 0
x[866] 1
x[867] 1
x[868] 1
x[869] 0
x[870] 0
x[871] 0
x[872] 1
x[873] 1
x[874] 0
x[875] 0
x[876] 0
x[877] 1
x[878] 1
x[879] 1
x[880] 0
x[881] 1
x[882] 1
x[883] 0
x[884] 1
x[885] 1
x[886] 0
x[887] 1
x[888] 1
x[889] 0
x[890] 1
x[891] 1
x[892] 1
x[893] 0
x[894] 1
x[895] 0
x[896] 1
x[897] 0
x[898] 0
x[899] 1
x[900] 1
x[901] 1
x[902] 1
x[903] 1
x[904] 1
x[905] 0
x[906] 1
x[907] 0
x[908] 0
x[909] 1
x[910] 0
x[911] 1
x[912] 1
x[913] 1
x[914] 0
x[915] 1
x[916] 0
x[917] 1
x[918] 1
x[919] 1
x[920] 0
x[921] 1
x[922] 1
x[923] 1
x[924] 1
x[925] 1
x[926] 0
x[927] 0
x[928] 1
x[929] 0
x[930] 0
x[931] 0
x[932] 1
x[933] 0
x[934] 1
x[935] 1
x[936] 1
x[937] 1
x[938] 0
x[939] 0
x[940] 0
x[941] 0
x[942] 1
x[943] 1
x[944] 1
x[945] 1
x[946] 1
x[947] 1
x[948] 1
x[949] 1
x[950] 0
x[951] 1
x[952] 1
x[953] 0
x[954] 1
x[955] 0
x[956] 1
x[957] 1
x[958] 1
x[959] 1
x[960] 0
x[961] 1
x[962] 1
x[963] 0
x[964] 1
x[965] 1
x[966] 1
x[967] 0
x[968] 1
x[969] 1
x[970] 1
x[971] 1
x[972] 1
x[973] 1
x[974] 1
x[975] 0
x[976] 0
x[977] 1
x[978] 1
x[979] 1
x[980] 1
x[981] 0
x[982] 1
x[983] 0
x[984] 1
x[985] 1
x[986] 0
x[987] 1
x[988] 1
x[989] 0
x[990] 1
x[991] 0
x[992] 1
x[993] 1
x[994] 0
x[995] 1
x[996] 0
x[997] 1
x[998] 0
x[999] 1
